\ENCODING=ISO-8859-1
\Problem name: ilog.cplex

Minimize
 obj1: 2147483647 x1 + x2 + x3 + 10000 x4 + x5 + 200 x6 + 250 x7 + 100 x8 + x9
       + x10 + 50 x11 + x12 + 200 x13 + 250 x14 + 50 x15 + 2147483647 x16 + x17
       + x18 + 10000 x19 + x20 + 200 x21 + 250 x22 + 100 x23 + x24 + x25
       + 50 x26 + x27 + 200 x28 + 250 x29 + 50 x30 + 2147483647 x31 + x32 + x33
       + 10000 x34 + x35 + 200 x36 + 250 x37 + 100 x38 + x39 + x40 + 50 x41
       + x42 + 200 x43 + 250 x44 + 50 x45 + 2147483647 x46 + x47 + 10000 x48
       + 100 x49 + 200 x50 + 250 x51 + 10000 x52 + 10000 x53 + 10000 x54 + x55
       + 10000 x56 + 10000 x57 + 500 x58 + 2147483647 x59 + x60 + 10000 x61
       + 100 x62 + 200 x63 + 250 x64 + 10000 x65 + 10000 x66 + 10000 x67 + x68
       + 10000 x69 + 10000 x70 + 500 x71 + 2147483647 x72 + x73 + 10000 x74
       + 100 x75 + 200 x76 + 250 x77 + 10000 x78 + 10000 x79 + 10000 x80 + x81
       + 10000 x82 + 10000 x83 + 500 x84 + 2147483647 x85 + 100 x86 + 10000 x87
       + x88 + 10000 x89 + 10000 x90 + 100 x91 + x92 + 200 x93 + 250 x94
       + 100 x95 + 2147483647 x96 + 100 x97 + 10000 x98 + x99 + 10000 x100
       + 10000 x101 + 100 x102 + x103 + 200 x104 + 250 x105 + 100 x106
       + 2147483647 x107 + 100 x108 + 10000 x109 + x110 + 10000 x111
       + 10000 x112 + 100 x113 + x114 + 200 x115 + 250 x116 + 100 x117
       + 2147483647 x118 + 10000 x119 + 10000 x120 + 10000 x121 + 10000 x122
       + x123 + 200 x124 + 250 x125 + 500 x126 + 2147483647 x127 + 10000 x128
       + 10000 x129 + 10000 x130 + 10000 x131 + x132 + 200 x133 + 250 x134
       + 500 x135 + 2147483647 x136 + 10000 x137 + 10000 x138 + 10000 x139
       + 10000 x140 + x141 + 200 x142 + 250 x143 + 500 x144 + 2147483647 x145
       + 10000 x146 + 10000 x147 + x148 + 10000 x149 + 10000 x150 + 500 x151
       + 2147483647 x152 + 10000 x153 + 10000 x154 + x155 + 10000 x156
       + 10000 x157 + 500 x158 + 2147483647 x159 + 10000 x160 + 10000 x161
       + x162 + 10000 x163 + 10000 x164 + 500 x165 + 2147483647 x166 + x167
       + 10000 x168 + x169 + 500 x170 + 2147483647 x171 + x172 + 10000 x173
       + x174 + 500 x175 + 2147483647 x176 + x177 + 10000 x178 + x179
       + 500 x180 + 2147483647 x181 + 10000 x182 + 10000 x183 + 2147483647 x184
       + 10000 x185 + 10000 x186 + 2147483647 x187 + 10000 x188 + 10000 x189
       + 2147483647 x190 + 2147483647 x191 + 2147483647 x192
Subject To
 c1:   x2 + x3 + x4 + x5 + x6 + x7 + x8 - x9 - x10 - x11 - x12 - x13 - x14
       - x15  = 0
 c2:   x17 + x18 + x19 + x20 + x21 + x22 + x23 - x24 - x25 - x26 - x27 - x28
       - x29 - x30  = 0
 c3:   x32 + x33 + x34 + x35 + x36 + x37 + x38 - x39 - x40 - x41 - x42 - x43
       - x44 - x45  = 0
 c4:   - x2 + x9 + x47 + x48 + x49 + x50 + x51 + x52 - x53 - x54 - x55 - x56
       - x57 - x58  = 0
 c5:   - x17 + x24 + x60 + x61 + x62 + x63 + x64 + x65 - x66 - x67 - x68 - x69
       - x70 - x71  = 0
 c6:   - x32 + x39 + x73 + x74 + x75 + x76 + x77 + x78 - x79 - x80 - x81 - x82
       - x83 - x84  = 0
 c7:   - x3 + x10 - x47 + x53 + x86 + x87 + x88 + x89 + x90 - x91 - x92 - x93
       - x94 - x95  = 0
 c8:   - x18 + x25 - x60 + x66 + x97 + x98 + x99 + x100 + x101 - x102 - x103
       - x104 - x105 - x106  = 0
 c9:   - x33 + x40 - x73 + x79 + x108 + x109 + x110 + x111 + x112 - x113 - x114
       - x115 - x116 - x117  = 0
 c10:  - x4 + x11 - x48 + x54 - x86 + x91 + x119 + x120 + x121 + x122 - x123
       - x124 - x125 - x126  = 0
 c11:  - x19 + x26 - x61 + x67 - x97 + x102 + x128 + x129 + x130 + x131 - x132
       - x133 - x134 - x135  = 0
 c12:  - x34 + x41 - x74 + x80 - x108 + x113 + x137 + x138 + x139 + x140 - x141
       - x142 - x143 - x144  = 0
 c13:  - x5 + x12 - x49 + x55 - x87 + x92 - x119 + x123 + x146 + x147 + x148
       - x149 - x150 - x151  = 0
 c14:  - x20 + x27 - x62 + x68 - x98 + x103 - x128 + x132 + x153 + x154 + x155
       - x156 - x157 - x158  = 0
 c15:  - x35 + x42 - x75 + x81 - x109 + x114 - x137 + x141 + x160 + x161 + x162
       - x163 - x164 - x165  = 0
 c16:  - x6 + x13 - x50 + x56 - x88 + x93 - x120 + x124 - x146 + x149 + x167
       + x168 - x169 - x170  = 0
 c17:  - x21 + x28 - x63 + x69 - x99 + x104 - x129 + x133 - x153 + x156 + x172
       + x173 - x174 - x175  = 0
 c18:  - x36 + x43 - x76 + x82 - x110 + x115 - x138 + x142 - x160 + x163 + x177
       + x178 - x179 - x180  = 0
 c19:  - x7 + x14 - x51 + x57 - x89 + x94 - x121 + x125 - x147 + x150 - x167
       + x169 + x182 - x183  = 0
 c20:  - x22 + x29 - x64 + x70 - x100 + x105 - x130 + x134 - x154 + x157 - x172
       + x174 + x185 - x186  = 0
 c21:  - x37 + x44 - x77 + x83 - x111 + x116 - x139 + x143 - x161 + x164 - x177
       + x179 + x188 - x189  = 0
 c22:  - x8 + x15 - x52 + x58 - x90 + x95 - x122 + x126 - x148 + x151 - x168
       + x170 - x182 + x183  = 0
 c23:  - x23 + x30 - x65 + x71 - x101 + x106 - x131 + x135 - x155 + x158 - x173
       + x175 - x185 + x186  = 0
 c24:  - x38 + x45 - x78 + x84 - x112 + x117 - x140 + x144 - x162 + x165 - x178
       + x180 - x188 + x189  = 0
 c25:  x193 + x194 + x195  = 1
 c26:  x196 + x197 + x198  = 1
 c27:  x199 + x200 + x201  = 1
 c28:  x1 + x2 + x3 + x4 + x5 + x6 + x7 + x8  = 1
 c29:  x16 + x17 + x18 + x19 + x20 + x21 + x22 + x23  = 1
 c30:  x31 + x32 + x33 + x34 + x35 + x36 + x37 + x38  = 1
 c31:  - x2 - x3 - x46 - x47 - x53 - x54 - x55 - x56 - x57 - x58 - x85 - x91
       - x92 - x93 - x94 - x95 + x193 <= 0
 c32:  - x17 - x18 - x59 - x60 - x66 - x67 - x68 - x69 - x70 - x71 - x96 - x102
       - x103 - x104 - x105 - x106 + x194 <= 0
 c33:  - x32 - x33 - x72 - x73 - x79 - x80 - x81 - x82 - x83 - x84 - x107
       - x113 - x114 - x115 - x116 - x117 + x195 <= 0
 c34:  - x3 - x47 - x85 - x91 - x92 - x93 - x94 - x95 + x196 <= 0
 c35:  - x18 - x60 - x96 - x102 - x103 - x104 - x105 - x106 + x197 <= 0
 c36:  - x33 - x73 - x107 - x113 - x114 - x115 - x116 - x117 + x198 <= 0
 c37:  - x6 - x7 - x50 - x51 - x88 - x89 - x120 - x121 - x146 - x147 - x166
       - x167 - x169 - x170 - x181 - x183 + x199 <= 0
 c38:  - x21 - x22 - x63 - x64 - x99 - x100 - x129 - x130 - x153 - x154 - x171
       - x172 - x174 - x175 - x184 - x186 + x200 <= 0
 c39:  - x36 - x37 - x76 - x77 - x110 - x111 - x138 - x139 - x160 - x161 - x176
       - x177 - x179 - x180 - x187 - x189 + x201 <= 0
 c40:  20 x193 + 20 x196 + 90 x199 <= 100
 c41:  20 x194 + 20 x197 + 90 x200 <= 100
 c42:  20 x195 + 20 x198 + 90 x201 <= 100
 c43:  7 x47 + x202 - x203 <= 6
 c44:  7 x60 + x204 - x205 <= 6
 c45:  7 x73 + x206 - x207 <= 6
 c46:  7 x48 + x202 - x208 <= 6
 c47:  7 x61 + x204 - x209 <= 6
 c48:  7 x74 + x206 - x210 <= 6
 c49:  7 x49 + x202 - x211 <= 6
 c50:  7 x62 + x204 - x212 <= 6
 c51:  7 x75 + x206 - x213 <= 6
 c52:  7 x50 + x202 - x214 <= 6
 c53:  7 x63 + x204 - x215 <= 6
 c54:  7 x76 + x206 - x216 <= 6
 c55:  7 x51 + x202 - x217 <= 6
 c56:  7 x64 + x204 - x218 <= 6
 c57:  7 x77 + x206 - x219 <= 6
 c58:  7 x52 + x202 - x220 <= 6
 c59:  7 x65 + x204 - x221 <= 6
 c60:  7 x78 + x206 - x222 <= 6
 c61:  7 x53 - x202 + x203 <= 6
 c62:  7 x66 - x204 + x205 <= 6
 c63:  7 x79 - x206 + x207 <= 6
 c64:  7 x86 + x203 - x208 <= 6
 c65:  7 x97 + x205 - x209 <= 6
 c66:  7 x108 + x207 - x210 <= 6
 c67:  7 x87 + x203 - x211 <= 6
 c68:  7 x98 + x205 - x212 <= 6
 c69:  7 x109 + x207 - x213 <= 6
 c70:  7 x88 + x203 - x214 <= 6
 c71:  7 x99 + x205 - x215 <= 6
 c72:  7 x110 + x207 - x216 <= 6
 c73:  7 x89 + x203 - x217 <= 6
 c74:  7 x100 + x205 - x218 <= 6
 c75:  7 x111 + x207 - x219 <= 6
 c76:  7 x90 + x203 - x220 <= 6
 c77:  7 x101 + x205 - x221 <= 6
 c78:  7 x112 + x207 - x222 <= 6
 c79:  7 x54 - x202 + x208 <= 6
 c80:  7 x67 - x204 + x209 <= 6
 c81:  7 x80 - x206 + x210 <= 6
 c82:  7 x91 - x203 + x208 <= 6
 c83:  7 x102 - x205 + x209 <= 6
 c84:  7 x113 - x207 + x210 <= 6
 c85:  7 x119 + x208 - x211 <= 6
 c86:  7 x128 + x209 - x212 <= 6
 c87:  7 x137 + x210 - x213 <= 6
 c88:  7 x120 + x208 - x214 <= 6
 c89:  7 x129 + x209 - x215 <= 6
 c90:  7 x138 + x210 - x216 <= 6
 c91:  7 x121 + x208 - x217 <= 6
 c92:  7 x130 + x209 - x218 <= 6
 c93:  7 x139 + x210 - x219 <= 6
 c94:  7 x122 + x208 - x220 <= 6
 c95:  7 x131 + x209 - x221 <= 6
 c96:  7 x140 + x210 - x222 <= 6
 c97:  7 x55 - x202 + x211 <= 6
 c98:  7 x68 - x204 + x212 <= 6
 c99:  7 x81 - x206 + x213 <= 6
 c100: 7 x92 - x203 + x211 <= 6
 c101: 7 x103 - x205 + x212 <= 6
 c102: 7 x114 - x207 + x213 <= 6
 c103: 7 x123 - x208 + x211 <= 6
 c104: 7 x132 - x209 + x212 <= 6
 c105: 7 x141 - x210 + x213 <= 6
 c106: 7 x146 + x211 - x214 <= 6
 c107: 7 x153 + x212 - x215 <= 6
 c108: 7 x160 + x213 - x216 <= 6
 c109: 7 x147 + x211 - x217 <= 6
 c110: 7 x154 + x212 - x218 <= 6
 c111: 7 x161 + x213 - x219 <= 6
 c112: 7 x148 + x211 - x220 <= 6
 c113: 7 x155 + x212 - x221 <= 6
 c114: 7 x162 + x213 - x222 <= 6
 c115: 7 x56 - x202 + x214 <= 6
 c116: 7 x69 - x204 + x215 <= 6
 c117: 7 x82 - x206 + x216 <= 6
 c118: 7 x93 - x203 + x214 <= 6
 c119: 7 x104 - x205 + x215 <= 6
 c120: 7 x115 - x207 + x216 <= 6
 c121: 7 x124 - x208 + x214 <= 6
 c122: 7 x133 - x209 + x215 <= 6
 c123: 7 x142 - x210 + x216 <= 6
 c124: 7 x149 - x211 + x214 <= 6
 c125: 7 x156 - x212 + x215 <= 6
 c126: 7 x163 - x213 + x216 <= 6
 c127: 7 x167 + x214 - x217 <= 6
 c128: 7 x172 + x215 - x218 <= 6
 c129: 7 x177 + x216 - x219 <= 6
 c130: 7 x168 + x214 - x220 <= 6
 c131: 7 x173 + x215 - x221 <= 6
 c132: 7 x178 + x216 - x222 <= 6
 c133: 7 x57 - x202 + x217 <= 6
 c134: 7 x70 - x204 + x218 <= 6
 c135: 7 x83 - x206 + x219 <= 6
 c136: 7 x94 - x203 + x217 <= 6
 c137: 7 x105 - x205 + x218 <= 6
 c138: 7 x116 - x207 + x219 <= 6
 c139: 7 x125 - x208 + x217 <= 6
 c140: 7 x134 - x209 + x218 <= 6
 c141: 7 x143 - x210 + x219 <= 6
 c142: 7 x150 - x211 + x217 <= 6
 c143: 7 x157 - x212 + x218 <= 6
 c144: 7 x164 - x213 + x219 <= 6
 c145: 7 x169 - x214 + x217 <= 6
 c146: 7 x174 - x215 + x218 <= 6
 c147: 7 x179 - x216 + x219 <= 6
 c148: 7 x182 + x217 - x220 <= 6
 c149: 7 x185 + x218 - x221 <= 6
 c150: 7 x188 + x219 - x222 <= 6
 c151: 7 x58 - x202 + x220 <= 6
 c152: 7 x71 - x204 + x221 <= 6
 c153: 7 x84 - x206 + x222 <= 6
 c154: 7 x95 - x203 + x220 <= 6
 c155: 7 x106 - x205 + x221 <= 6
 c156: 7 x117 - x207 + x222 <= 6
 c157: 7 x126 - x208 + x220 <= 6
 c158: 7 x135 - x209 + x221 <= 6
 c159: 7 x144 - x210 + x222 <= 6
 c160: 7 x151 - x211 + x220 <= 6
 c161: 7 x158 - x212 + x221 <= 6
 c162: 7 x165 - x213 + x222 <= 6
 c163: 7 x170 - x214 + x220 <= 6
 c164: 7 x175 - x215 + x221 <= 6
 c165: 7 x180 - x216 + x222 <= 6
 c166: 7 x183 - x217 + x220 <= 6
 c167: 7 x186 - x218 + x221 <= 6
 c168: 7 x189 - x219 + x222 <= 6
Bounds
 0 <= x1 <= 1
 0 <= x2 <= 1
 0 <= x3 <= 1
 0 <= x4 <= 1
 0 <= x5 <= 1
 0 <= x6 <= 1
 0 <= x7 <= 1
 0 <= x8 <= 1
 0 <= x9 <= 1
 0 <= x10 <= 1
 0 <= x11 <= 1
 0 <= x12 <= 1
 0 <= x13 <= 1
 0 <= x14 <= 1
 0 <= x15 <= 1
 0 <= x16 <= 1
 0 <= x17 <= 1
 0 <= x18 <= 1
 0 <= x19 <= 1
 0 <= x20 <= 1
 0 <= x21 <= 1
 0 <= x22 <= 1
 0 <= x23 <= 1
 0 <= x24 <= 1
 0 <= x25 <= 1
 0 <= x26 <= 1
 0 <= x27 <= 1
 0 <= x28 <= 1
 0 <= x29 <= 1
 0 <= x30 <= 1
 0 <= x31 <= 1
 0 <= x32 <= 1
 0 <= x33 <= 1
 0 <= x34 <= 1
 0 <= x35 <= 1
 0 <= x36 <= 1
 0 <= x37 <= 1
 0 <= x38 <= 1
 0 <= x39 <= 1
 0 <= x40 <= 1
 0 <= x41 <= 1
 0 <= x42 <= 1
 0 <= x43 <= 1
 0 <= x44 <= 1
 0 <= x45 <= 1
 0 <= x46 <= 1
 0 <= x47 <= 1
 0 <= x48 <= 1
 0 <= x49 <= 1
 0 <= x50 <= 1
 0 <= x51 <= 1
 0 <= x52 <= 1
 0 <= x53 <= 1
 0 <= x54 <= 1
 0 <= x55 <= 1
 0 <= x56 <= 1
 0 <= x57 <= 1
 0 <= x58 <= 1
 0 <= x59 <= 1
 0 <= x60 <= 1
 0 <= x61 <= 1
 0 <= x62 <= 1
 0 <= x63 <= 1
 0 <= x64 <= 1
 0 <= x65 <= 1
 0 <= x66 <= 1
 0 <= x67 <= 1
 0 <= x68 <= 1
 0 <= x69 <= 1
 0 <= x70 <= 1
 0 <= x71 <= 1
 0 <= x72 <= 1
 0 <= x73 <= 1
 0 <= x74 <= 1
 0 <= x75 <= 1
 0 <= x76 <= 1
 0 <= x77 <= 1
 0 <= x78 <= 1
 0 <= x79 <= 1
 0 <= x80 <= 1
 0 <= x81 <= 1
 0 <= x82 <= 1
 0 <= x83 <= 1
 0 <= x84 <= 1
 0 <= x85 <= 1
 0 <= x86 <= 1
 0 <= x87 <= 1
 0 <= x88 <= 1
 0 <= x89 <= 1
 0 <= x90 <= 1
 0 <= x91 <= 1
 0 <= x92 <= 1
 0 <= x93 <= 1
 0 <= x94 <= 1
 0 <= x95 <= 1
 0 <= x96 <= 1
 0 <= x97 <= 1
 0 <= x98 <= 1
 0 <= x99 <= 1
 0 <= x100 <= 1
 0 <= x101 <= 1
 0 <= x102 <= 1
 0 <= x103 <= 1
 0 <= x104 <= 1
 0 <= x105 <= 1
 0 <= x106 <= 1
 0 <= x107 <= 1
 0 <= x108 <= 1
 0 <= x109 <= 1
 0 <= x110 <= 1
 0 <= x111 <= 1
 0 <= x112 <= 1
 0 <= x113 <= 1
 0 <= x114 <= 1
 0 <= x115 <= 1
 0 <= x116 <= 1
 0 <= x117 <= 1
 0 <= x118 <= 1
 0 <= x119 <= 1
 0 <= x120 <= 1
 0 <= x121 <= 1
 0 <= x122 <= 1
 0 <= x123 <= 1
 0 <= x124 <= 1
 0 <= x125 <= 1
 0 <= x126 <= 1
 0 <= x127 <= 1
 0 <= x128 <= 1
 0 <= x129 <= 1
 0 <= x130 <= 1
 0 <= x131 <= 1
 0 <= x132 <= 1
 0 <= x133 <= 1
 0 <= x134 <= 1
 0 <= x135 <= 1
 0 <= x136 <= 1
 0 <= x137 <= 1
 0 <= x138 <= 1
 0 <= x139 <= 1
 0 <= x140 <= 1
 0 <= x141 <= 1
 0 <= x142 <= 1
 0 <= x143 <= 1
 0 <= x144 <= 1
 0 <= x145 <= 1
 0 <= x146 <= 1
 0 <= x147 <= 1
 0 <= x148 <= 1
 0 <= x149 <= 1
 0 <= x150 <= 1
 0 <= x151 <= 1
 0 <= x152 <= 1
 0 <= x153 <= 1
 0 <= x154 <= 1
 0 <= x155 <= 1
 0 <= x156 <= 1
 0 <= x157 <= 1
 0 <= x158 <= 1
 0 <= x159 <= 1
 0 <= x160 <= 1
 0 <= x161 <= 1
 0 <= x162 <= 1
 0 <= x163 <= 1
 0 <= x164 <= 1
 0 <= x165 <= 1
 0 <= x166 <= 1
 0 <= x167 <= 1
 0 <= x168 <= 1
 0 <= x169 <= 1
 0 <= x170 <= 1
 0 <= x171 <= 1
 0 <= x172 <= 1
 0 <= x173 <= 1
 0 <= x174 <= 1
 0 <= x175 <= 1
 0 <= x176 <= 1
 0 <= x177 <= 1
 0 <= x178 <= 1
 0 <= x179 <= 1
 0 <= x180 <= 1
 0 <= x181 <= 1
 0 <= x182 <= 1
 0 <= x183 <= 1
 0 <= x184 <= 1
 0 <= x185 <= 1
 0 <= x186 <= 1
 0 <= x187 <= 1
 0 <= x188 <= 1
 0 <= x189 <= 1
 0 <= x190 <= 1
 0 <= x191 <= 1
 0 <= x192 <= 1
 0 <= x193 <= 1
 0 <= x194 <= 1
 0 <= x195 <= 1
 0 <= x196 <= 1
 0 <= x197 <= 1
 0 <= x198 <= 1
 0 <= x199 <= 1
 0 <= x200 <= 1
 0 <= x201 <= 1
 1 <= x202 <= 7
 1 <= x203 <= 7
 1 <= x204 <= 7
 1 <= x205 <= 7
 1 <= x206 <= 7
 1 <= x207 <= 7
 1 <= x208 <= 7
 1 <= x209 <= 7
 1 <= x210 <= 7
 1 <= x211 <= 7
 1 <= x212 <= 7
 1 <= x213 <= 7
 1 <= x214 <= 7
 1 <= x215 <= 7
 1 <= x216 <= 7
 1 <= x217 <= 7
 1 <= x218 <= 7
 1 <= x219 <= 7
 1 <= x220 <= 7
 1 <= x221 <= 7
 1 <= x222 <= 7
Binaries
 x1  x2  x3  x4  x5  x6  x7  x8  x9  x10  x11  x12  x13  x14  x15  x16  x17 
 x18  x19  x20  x21  x22  x23  x24  x25  x26  x27  x28  x29  x30  x31  x32 
 x33  x34  x35  x36  x37  x38  x39  x40  x41  x42  x43  x44  x45  x46  x47 
 x48  x49  x50  x51  x52  x53  x54  x55  x56  x57  x58  x59  x60  x61  x62 
 x63  x64  x65  x66  x67  x68  x69  x70  x71  x72  x73  x74  x75  x76  x77 
 x78  x79  x80  x81  x82  x83  x84  x85  x86  x87  x88  x89  x90  x91  x92 
 x93  x94  x95  x96  x97  x98  x99  x100  x101  x102  x103  x104  x105  x106 
 x107  x108  x109  x110  x111  x112  x113  x114  x115  x116  x117  x118  x119 
 x120  x121  x122  x123  x124  x125  x126  x127  x128  x129  x130  x131  x132 
 x133  x134  x135  x136  x137  x138  x139  x140  x141  x142  x143  x144  x145 
 x146  x147  x148  x149  x150  x151  x152  x153  x154  x155  x156  x157  x158 
 x159  x160  x161  x162  x163  x164  x165  x166  x167  x168  x169  x170  x171 
 x172  x173  x174  x175  x176  x177  x178  x179  x180  x181  x182  x183  x184 
 x185  x186  x187  x188  x189  x190  x191  x192  x193  x194  x195  x196  x197 
 x198  x199  x200  x201 
Generals
 x202  x203  x204  x205  x206  x207  x208  x209  x210  x211  x212  x213  x214 
 x215  x216  x217  x218  x219  x220  x221  x222 
End
